SDVRP instances/p03/p03_00_tsplib0_split0.vrp
NAME:.\SDVRP_split
BEST_KNOWN: 0
COMMENT: 0
DIMENSION: 347
CAPACITY: 200
EDGE_WEIGHT_FORMAT: FUNCTION
EDGE_WEIGHT_TYPE: EXACT_2D
NODE_COORD_SECTION
1 0.00000 0.00000
2 6 14
3 0 -18
4 0 -18
5 0 -18
6 0 -18
7 20 10
8 20 10
9 20 10
10 20 -15
11 20 -15
12 20 -15
13 20 -15
14 20 -15
15 20 -15
16 -20 -5
17 -20 -5
18 -20 -5
19 -20 -5
20 -10 -5
21 -10 -5
22 -15 15
23 -15 15
24 -15 15
25 -25 8
26 -25 8
27 -25 8
28 -25 8
29 -25 8
30 20 25
31 20 25
32 20 25
33 20 25
34 -5 25
35 -5 25
36 -5 25
37 -5 25
38 -15 30
39 -15 30
40 15 0
41 15 0
42 15 0
43 15 0
44 15 0
45 15 0
46 -5 -10
47 -5 -10
48 -5 -10
49 -20 -25
50 -5 -30
51 -5 -30
52 -5 -30
53 -5 -30
54 -25 -15
55 -25 -15
56 -25 -15
57 -25 -15
58 -25 -15
59 -25 -15
60 -30 -5
61 -15 5
62 -15 5
63 -20 25
64 -20 25
65 -20 25
66 -20 25
67 -20 25
68 10 30
69 10 30
70 10 30
71 10 30
72 10 30
73 10 -15
74 10 -15
75 10 -25
76 10 -25
77 10 -25
78 10 -25
79 10 -25
80 20 -30
81 20 -30
82 20 -30
83 20 -30
84 20 -30
85 20 -30
86 30 0
87 30 0
88 30 -15
89 30 -15
90 30 -15
91 10 -5
92 10 -5
93 10 -5
94 10 -5
95 10 -5
96 0 5
97 0 5
98 0 5
99 0 5
100 6 2
101 6 2
102 6 2
103 6 2
104 29 7
105 29 7
106 29 7
107 29 7
108 29 7
109 5 25
110 5 25
111 -4 17
112 -4 17
113 -4 17
114 -4 17
115 -4 17
116 0 34
117 0 34
118 0 34
119 18 17
120 18 17
121 30 20
122 30 20
123 30 20
124 28 30
125 28 30
126 28 30
127 28 30
128 -33 25
129 -33 25
130 -33 25
131 -15 -15
132 -15 -15
133 -15 -15
134 -15 -15
135 -30 -30
136 -30 -30
137 -30 -30
138 -30 -30
139 25 -23
140 25 -23
141 25 -23
142 5 -10
143 5 -10
144 5 -10
145 5 -10
146 5 -10
147 7 -28
148 7 -28
149 7 -28
150 -11 -23
151 -11 -23
152 -11 -23
153 -12 -32
154 -12 -32
155 -12 -32
156 -12 -32
157 -24 -21
158 -24 -21
159 -24 -21
160 -24 -21
161 -24 -21
162 -29 3
163 -29 3
164 -29 3
165 -29 3
166 -33 13
167 -27 21
168 -27 21
169 -27 21
170 -27 21
171 -27 21
172 -22 17
173 -22 17
174 -22 17
175 -22 17
176 -22 17
177 -29 33
178 -29 33
179 12 12
180 12 12
181 12 12
182 14 23
183 -8 8
184 -8 8
185 -8 8
186 -8 8
187 -8 8
188 2 -4
189 2 -4
190 2 -4
191 22 -6
192 22 -6
193 22 -6
194 22 -6
195 22 -6
196 28 -12
197 18 -23
198 18 -23
199 18 -23
200 -3 -23
201 -3 -23
202 -3 -23
203 -3 -23
204 1 -9
205 1 -9
206 1 -9
207 1 -9
208 1 -9
209 -14 -11
210 -14 -11
211 -14 -11
212 -14 -11
213 -14 -11
214 -18 -1
215 -18 -1
216 -23 -11
217 -23 -11
218 -23 -11
219 -11 23
220 -11 23
221 -11 23
222 -11 23
223 -11 23
224 -11 23
225 -8 34
226 -20 42
227 -20 42
228 -20 42
229 -20 42
230 -20 42
231 27 42
232 14 38
233 14 38
234 14 38
235 14 38
236 32 -30
237 32 -30
238 32 -30
239 32 -30
240 21 4
241 21 4
242 21 4
243 21 4
244 21 4
245 2 12
246 2 12
247 2 12
248 2 21
249 2 21
250 2 21
251 22 33
252 22 33
253 22 33
254 22 33
255 12 -19
256 12 -19
257 12 -19
258 12 -19
259 9 -18
260 9 -18
261 9 -18
262 9 -18
263 9 -18
264 11 -22
265 11 -22
266 11 -22
267 11 -22
268 14 -24
269 14 -24
270 14 -24
271 14 -24
272 14 -24
273 14 7
274 14 7
275 14 7
276 18 8
277 18 8
278 18 8
279 26 17
280 26 17
281 22 13
282 22 13
283 22 13
284 21 2
285 21 2
286 21 2
287 20 19
288 20 19
289 20 19
290 20 19
291 -20 12
292 -20 12
293 -20 12
294 -20 12
295 -21 2
296 -21 2
297 -24 -4
298 -24 -4
299 -24 -4
300 -24 -4
301 -19 -13
302 -19 -13
303 -31 -17
304 -31 -17
305 -31 -17
306 -31 -17
307 -31 -17
308 -7 -17
309 -7 -17
310 -7 -17
311 -7 -17
312 -9 17
313 -9 17
314 -9 17
315 -9 17
316 -9 17
317 -9 0
318 -9 0
319 -9 0
320 -9 0
321 -4 32
322 -4 32
323 -20 -16
324 -13 -13
325 -17 -11
326 -17 -11
327 -9 -8
328 -9 -8
329 -9 -8
330 -9 -8
331 -9 -8
332 -10 -11
333 -13 -8
334 -13 -8
335 -10 -14
336 -10 -14
337 -16 -14
338 -15 -9
339 -15 -9
340 -15 -9
341 -15 -9
342 -15 -9
343 -17 -17
344 -17 -17
345 -17 -17
346 -17 -17
347 -17 -17
DEMAND_SECTION
1 0
2 10
3 2
4 2
5 2
6 1
7 10
8 2
9 1
10 10
11 2
12 2
13 2
14 2
15 1
16 20
17 2
18 2
19 2
20 2
21 1
22 2
23 2
24 1
25 2
26 2
27 2
28 2
29 1
30 10
31 2
32 2
33 2
34 10
35 2
36 2
37 2
38 10
39 2
40 10
41 2
42 2
43 2
44 2
45 1
46 20
47 2
48 1
49 20
50 2
51 2
52 2
53 2
54 10
55 2
56 2
57 2
58 2
59 1
60 2
61 10
62 2
63 10
64 2
65 2
66 2
67 1
68 2
69 2
70 2
71 2
72 1
73 10
74 1
75 10
76 2
77 2
78 2
79 2
80 20
81 2
82 2
83 2
84 2
85 1
86 2
87 1
88 2
89 2
90 2
91 10
92 2
93 2
94 2
95 1
96 10
97 2
98 2
99 2
100 10
101 2
102 2
103 2
104 2
105 2
106 2
107 2
108 1
109 20
110 1
111 20
112 2
113 2
114 2
115 1
116 20
117 2
118 1
119 10
120 1
121 10
122 2
123 2
124 2
125 2
126 2
127 2
128 2
129 2
130 1
131 2
132 2
133 2
134 2
135 10
136 2
137 2
138 2
139 20
140 10
141 1
142 2
143 2
144 2
145 2
146 1
147 2
148 2
149 1
150 2
151 2
152 1
153 2
154 2
155 2
156 1
157 10
158 2
159 2
160 2
161 2
162 10
163 2
164 2
165 2
166 1
167 20
168 2
169 2
170 2
171 1
172 20
173 10
174 2
175 2
176 2
177 20
178 10
179 10
180 2
181 1
182 10
183 2
184 2
185 2
186 2
187 1
188 10
189 2
190 2
191 10
192 2
193 2
194 2
195 2
196 2
197 2
198 2
199 2
200 2
201 2
202 2
203 1
204 10
205 2
206 2
207 2
208 2
209 20
210 2
211 2
212 2
213 2
214 2
215 1
216 10
217 2
218 1
219 10
220 2
221 2
222 2
223 2
224 1
225 10
226 2
227 2
228 2
229 2
230 1
231 20
232 20
233 2
234 2
235 1
236 20
237 2
238 2
239 1
240 20
241 10
242 2
243 2
244 2
245 2
246 2
247 2
248 2
249 2
250 1
251 10
252 2
253 2
254 1
255 20
256 2
257 2
258 1
259 2
260 2
261 2
262 2
263 1
264 2
265 2
266 2
267 2
268 10
269 2
270 2
271 2
272 2
273 10
274 2
275 1
276 10
277 2
278 2
279 2
280 1
281 20
282 2
283 1
284 2
285 2
286 2
287 20
288 2
289 2
290 2
291 10
292 2
293 2
294 2
295 10
296 1
297 2
298 2
299 2
300 1
301 40
302 1
303 20
304 10
305 2
306 2
307 1
308 20
309 2
310 2
311 2
312 2
313 2
314 2
315 2
316 1
317 10
318 2
319 2
320 1
321 2
322 1
323 1
324 2
325 20
326 2
327 20
328 2
329 2
330 2
331 1
332 20
333 10
334 1
335 10
336 2
337 10
338 2
339 2
340 2
341 2
342 1
343 10
344 2
345 2
346 2
347 1
DEPOT_SECTION
1
-1
EOF