SDVRP instances/p03/p03_00_tsplib0_split0.sol
346 -20 19 332 333 340 338 337 341 339 215 216 217 55 58 53 56 57 54 303 302 306 304 305 135 134 136 137 159 157 156 160 158 48 150 151 149 307 310 309 308 45 46 47 -42 39 41 40 44 43 284 285 283 241 240 243 239 242 85 86 107 104 106 105 103 120 122 121 278 279 282 280 281 8 7 6 277 275 276 274 272 273 102 99 100 101 -94 93 91 92 90 11 13 14 9 12 10 197 196 198 267 269 270 268 271 80 83 79 81 82 84 237 235 236 238 139 138 140 88 87 89 195 190 191 194 192 193 -96 98 95 97 114 113 111 112 110 33 35 36 34 115 116 117 320 321 224 229 227 225 226 228 176 177 63 65 62 64 66 38 37 222 221 219 220 223 218 314 315 311 313 312 -179 180 178 118 119 289 287 288 286 181 31 32 29 30 124 123 125 126 251 253 252 250 230 234 232 233 231 67 68 70 69 71 108 109 249 247 248 1 245 244 246 -185 184 186 183 182 22 21 23 292 293 290 291 172 173 171 174 175 166 170 169 167 168 128 129 127 165 26 25 24 27 28 164 161 163 162 59 296 299 297 298 17 18 16 15 214 213 294 295 61 60 316 317 318 319 -188 189 187 141 145 144 142 143 73 72 260 259 258 261 262 254 257 256 255 264 266 265 263 76 74 77 75 78 148 147 146 51 49 50 52 154 152 153 155 199 202 201 200 3 2 4 5 205 203 206 204 207 -327 328 329 326 330 208 211 209 210 212 325 324 301 300 322 345 342 346 343 344 130 133 132 131 336 323 335 334 331 0 





OBJ=
829.600
BEST_KNOWN=
0.000